certificates/rado_a6_c44_N11.cnf
c Rad2 upper bound instance: x1 + 6*x2 - x3 = 44, interval [1,11]
p cnf 11 40
1 5 8 0
-1 -5 -8 0
1 9 11 0
-1 -9 -11 0
2 6 8 0
-2 -6 -8 0
1 3 7 0
-1 -3 -7 0
3 7 8 0
-3 -7 -8 0
2 4 7 0
-2 -4 -7 0
4 8 0
-4 -8 0
3 5 7 0
-3 -5 -7 0
5 8 9 0
-5 -8 -9 0
4 6 7 0
-4 -6 -7 0
6 8 10 0
-6 -8 -10 0
5 7 0
-5 -7 0
7 8 11 0
-7 -8 -11 0
6 7 8 0
-6 -7 -8 0
1 6 9 0
-1 -6 -9 0
7 9 0
-7 -9 0
2 6 10 0
-2 -6 -10 0
7 8 10 0
-7 -8 -10 0
3 6 11 0
-3 -6 -11 0
7 9 11 0
-7 -9 -11 0
