certificates/rado_a6_c44_N11.drat
-9 -11 0
-11 0
9 0
-7 0
5 0
8 0
0
